
Gurobi 9.5.2 (win64) logging started Tue Oct 10 15:21:30 2023

Set parameter LogFile to value "./ccga_results/2023-10-10 15-21-27-638/MSP_TimeStampConvert_gurobi_log.txt"
Set parameter TimeLimit to value 7200

Gurobi 9.5.2 (win64) logging started Tue Oct 10 15:21:30 2023

Set parameter LogFile to value "./ccga_results/2023-10-10 15-21-27-638/MSP_TimeStampConvert_gurobi_log.txt"
Set parameter TimeLimit to value 7200
Gurobi Optimizer version 9.5.2 build v9.5.2rc0 (win64)
Thread count: 10 physical cores, 20 logical processors, using up to 20 threads
Optimize a model with 1752 rows, 1321 columns and 4350 nonzeros
Model fingerprint: 0x61917b67
Variable types: 25 continuous, 1296 integer (1296 binary)
Coefficient statistics:
  Matrix range     [1e+00, 1e+00]
  Objective range  [1e+00, 1e+00]
  Bounds range     [1e+03, 1e+03]
  RHS range        [1e+00, 1e+00]
Found heuristic solution: objective 24000.000000

Explored 0 nodes (0 simplex iterations) in 0.00 seconds (0.00 work units)
Thread count was 1 (of 20 available processors)

Solution count 1: 24000 

Optimal solution found (tolerance 5.00e-02)
Best objective 2.400000000000e+04, best bound 2.400000000000e+04, gap 0.0000%

User-callback calls 21, time in user-callback 0.00 sec
